c description: Perfect Matching Principle on 
c generator: CNFgen (0.9.0)
c copyright: (C) 2012-2020 Massimo Lauria <massimo.lauria@uniroma1.it>
c url: https://massimolauria.net/cnfgen
c
p cnf 120 963
-1 -2 0
-1 -3 0
-1 -4 0
-1 -5 0
-1 -6 0
-1 -7 0
-1 -8 0
-2 -3 0
-2 -4 0
-2 -5 0
-2 -6 0
-2 -7 0
-2 -8 0
-3 -4 0
-3 -5 0
-3 -6 0
-3 -7 0
-3 -8 0
-4 -5 0
-4 -6 0
-4 -7 0
-4 -8 0
-5 -6 0
-5 -7 0
-5 -8 0
-6 -7 0
-6 -8 0
-7 -8 0
1 2 3 4 5 6 7 8 0
-9 -10 0
-9 -11 0
-9 -12 0
-9 -13 0
-9 -14 0
-10 -11 0
-10 -12 0
-10 -13 0
-10 -14 0
-11 -12 0
-11 -13 0
-11 -14 0
-12 -13 0
-12 -14 0
-13 -14 0
9 10 11 12 13 14 0
-1 -15 0
-1 -16 0
-1 -17 0
-1 -18 0
-1 -19 0
-1 -20 0
-1 -21 0
-1 -22 0
-1 -23 0
-1 -24 0
-15 -16 0
-15 -17 0
-15 -18 0
-15 -19 0
-15 -20 0
-15 -21 0
-15 -22 0
-15 -23 0
-15 -24 0
-16 -17 0
-16 -18 0
-16 -19 0
-16 -20 0
-16 -21 0
-16 -22 0
-16 -23 0
-16 -24 0
-17 -18 0
-17 -19 0
-17 -20 0
-17 -21 0
-17 -22 0
-17 -23 0
-17 -24 0
-18 -19 0
-18 -20 0
-18 -21 0
-18 -22 0
-18 -23 0
-18 -24 0
-19 -20 0
-19 -21 0
-19 -22 0
-19 -23 0
-19 -24 0
-20 -21 0
-20 -22 0
-20 -23 0
-20 -24 0
-21 -22 0
-21 -23 0
-21 -24 0
-22 -23 0
-22 -24 0
-23 -24 0
1 15 16 17 18 19 20 21 22 23 24 0
-15 -25 0
-15 -26 0
-15 -27 0
-15 -28 0
-15 -29 0
-15 -30 0
-15 -31 0
-15 -32 0
-15 -33 0
-15 -34 0
-15 -35 0
-15 -36 0
-25 -26 0
-25 -27 0
-25 -28 0
-25 -29 0
-25 -30 0
-25 -31 0
-25 -32 0
-25 -33 0
-25 -34 0
-25 -35 0
-25 -36 0
-26 -27 0
-26 -28 0
-26 -29 0
-26 -30 0
-26 -31 0
-26 -32 0
-26 -33 0
-26 -34 0
-26 -35 0
-26 -36 0
-27 -28 0
-27 -29 0
-27 -30 0
-27 -31 0
-27 -32 0
-27 -33 0
-27 -34 0
-27 -35 0
-27 -36 0
-28 -29 0
-28 -30 0
-28 -31 0
-28 -32 0
-28 -33 0
-28 -34 0
-28 -35 0
-28 -36 0
-29 -30 0
-29 -31 0
-29 -32 0
-29 -33 0
-29 -34 0
-29 -35 0
-29 -36 0
-30 -31 0
-30 -32 0
-30 -33 0
-30 -34 0
-30 -35 0
-30 -36 0
-31 -32 0
-31 -33 0
-31 -34 0
-31 -35 0
-31 -36 0
-32 -33 0
-32 -34 0
-32 -35 0
-32 -36 0
-33 -34 0
-33 -35 0
-33 -36 0
-34 -35 0
-34 -36 0
-35 -36 0
15 25 26 27 28 29 30 31 32 33 34 35 36 0
-25 -37 0
-25 -38 0
-25 -39 0
-25 -40 0
-25 -41 0
-25 -42 0
-25 -43 0
-37 -38 0
-37 -39 0
-37 -40 0
-37 -41 0
-37 -42 0
-37 -43 0
-38 -39 0
-38 -40 0
-38 -41 0
-38 -42 0
-38 -43 0
-39 -40 0
-39 -41 0
-39 -42 0
-39 -43 0
-40 -41 0
-40 -42 0
-40 -43 0
-41 -42 0
-41 -43 0
-42 -43 0
25 37 38 39 40 41 42 43 0
-44 -45 0
-44 -46 0
-44 -47 0
-44 -48 0
-45 -46 0
-45 -47 0
-45 -48 0
-46 -47 0
-46 -48 0
-47 -48 0
44 45 46 47 48 0
-16 -26 0
-16 -49 0
-16 -50 0
-16 -51 0
-16 -52 0
-16 -53 0
-16 -54 0
-16 -55 0
-16 -56 0
-16 -57 0
-26 -49 0
-26 -50 0
-26 -51 0
-26 -52 0
-26 -53 0
-26 -54 0
-26 -55 0
-26 -56 0
-26 -57 0
-49 -50 0
-49 -51 0
-49 -52 0
-49 -53 0
-49 -54 0
-49 -55 0
-49 -56 0
-49 -57 0
-50 -51 0
-50 -52 0
-50 -53 0
-50 -54 0
-50 -55 0
-50 -56 0
-50 -57 0
-51 -52 0
-51 -53 0
-51 -54 0
-51 -55 0
-51 -56 0
-51 -57 0
-52 -53 0
-52 -54 0
-52 -55 0
-52 -56 0
-52 -57 0
-53 -54 0
-53 -55 0
-53 -56 0
-53 -57 0
-54 -55 0
-54 -56 0
-54 -57 0
-55 -56 0
-55 -57 0
-56 -57 0
16 26 49 50 51 52 53 54 55 56 57 0
-17 -27 0
-17 -58 0
-17 -59 0
-27 -58 0
-27 -59 0
-58 -59 0
17 27 58 59 0
-18 -28 0
-18 -60 0
-18 -61 0
-18 -62 0
-28 -60 0
-28 -61 0
-28 -62 0
-60 -61 0
-60 -62 0
-61 -62 0
18 28 60 61 62 0
-19 -49 0
-19 -63 0
-19 -64 0
-19 -65 0
-19 -66 0
-19 -67 0
-49 -63 0
-49 -64 0
-49 -65 0
-49 -66 0
-49 -67 0
-63 -64 0
-63 -65 0
-63 -66 0
-63 -67 0
-64 -65 0
-64 -66 0
-64 -67 0
-65 -66 0
-65 -67 0
-66 -67 0
19 49 63 64 65 66 67 0
-2 -9 0
-2 -63 0
-2 -68 0
-2 -69 0
-9 -63 0
-9 -68 0
-9 -69 0
-63 -68 0
-63 -69 0
-68 -69 0
2 9 63 68 69 0
-10 -37 0
-10 -50 0
-10 -70 0
-10 -71 0
-10 -72 0
-10 -73 0
-37 -50 0
-37 -70 0
-37 -71 0
-37 -72 0
-37 -73 0
-50 -70 0
-50 -71 0
-50 -72 0
-50 -73 0
-70 -71 0
-70 -72 0
-70 -73 0
-71 -72 0
-71 -73 0
-72 -73 0
10 37 50 70 71 72 73 0
-3 -29 0
-3 -38 0
-3 -51 0
-3 -70 0
-3 -74 0
-3 -75 0
-3 -76 0
-3 -77 0
-3 -78 0
-29 -38 0
-29 -51 0
-29 -70 0
-29 -74 0
-29 -75 0
-29 -76 0
-29 -77 0
-29 -78 0
-38 -51 0
-38 -70 0
-38 -74 0
-38 -75 0
-38 -76 0
-38 -77 0
-38 -78 0
-51 -70 0
-51 -74 0
-51 -75 0
-51 -76 0
-51 -77 0
-51 -78 0
-70 -74 0
-70 -75 0
-70 -76 0
-70 -77 0
-70 -78 0
-74 -75 0
-74 -76 0
-74 -77 0
-74 -78 0
-75 -76 0
-75 -77 0
-75 -78 0
-76 -77 0
-76 -78 0
-77 -78 0
3 29 38 51 70 74 75 76 77 78 0
-4 -44 0
-4 -52 0
-4 -64 0
-4 -79 0
-4 -80 0
-4 -81 0
-4 -82 0
-4 -83 0
-4 -84 0
-4 -85 0
-4 -86 0
-44 -52 0
-44 -64 0
-44 -79 0
-44 -80 0
-44 -81 0
-44 -82 0
-44 -83 0
-44 -84 0
-44 -85 0
-44 -86 0
-52 -64 0
-52 -79 0
-52 -80 0
-52 -81 0
-52 -82 0
-52 -83 0
-52 -84 0
-52 -85 0
-52 -86 0
-64 -79 0
-64 -80 0
-64 -81 0
-64 -82 0
-64 -83 0
-64 -84 0
-64 -85 0
-64 -86 0
-79 -80 0
-79 -81 0
-79 -82 0
-79 -83 0
-79 -84 0
-79 -85 0
-79 -86 0
-80 -81 0
-80 -82 0
-80 -83 0
-80 -84 0
-80 -85 0
-80 -86 0
-81 -82 0
-81 -83 0
-81 -84 0
-81 -85 0
-81 -86 0
-82 -83 0
-82 -84 0
-82 -85 0
-82 -86 0
-83 -84 0
-83 -85 0
-83 -86 0
-84 -85 0
-84 -86 0
-85 -86 0
4 44 52 64 79 80 81 82 83 84 85 86 0
-5 -11 0
-5 -30 0
-5 -45 0
-5 -53 0
-5 -65 0
-5 -87 0
-5 -88 0
-5 -89 0
-5 -90 0
-5 -91 0
-11 -30 0
-11 -45 0
-11 -53 0
-11 -65 0
-11 -87 0
-11 -88 0
-11 -89 0
-11 -90 0
-11 -91 0
-30 -45 0
-30 -53 0
-30 -65 0
-30 -87 0
-30 -88 0
-30 -89 0
-30 -90 0
-30 -91 0
-45 -53 0
-45 -65 0
-45 -87 0
-45 -88 0
-45 -89 0
-45 -90 0
-45 -91 0
-53 -65 0
-53 -87 0
-53 -88 0
-53 -89 0
-53 -90 0
-53 -91 0
-65 -87 0
-65 -88 0
-65 -89 0
-65 -90 0
-65 -91 0
-87 -88 0
-87 -89 0
-87 -90 0
-87 -91 0
-88 -89 0
-88 -90 0
-88 -91 0
-89 -90 0
-89 -91 0
-90 -91 0
5 11 30 45 53 65 87 88 89 90 91 0
-20 -54 0
-20 -68 0
-20 -79 0
-20 -87 0
-20 -92 0
-20 -93 0
-20 -94 0
-54 -68 0
-54 -79 0
-54 -87 0
-54 -92 0
-54 -93 0
-54 -94 0
-68 -79 0
-68 -87 0
-68 -92 0
-68 -93 0
-68 -94 0
-79 -87 0
-79 -92 0
-79 -93 0
-79 -94 0
-87 -92 0
-87 -93 0
-87 -94 0
-92 -93 0
-92 -94 0
-93 -94 0
20 54 68 79 87 92 93 94 0
-6 -21 0
-6 -39 0
-6 -60 0
-6 -74 0
-6 -80 0
-6 -92 0
-6 -95 0
-6 -96 0
-6 -97 0
-21 -39 0
-21 -60 0
-21 -74 0
-21 -80 0
-21 -92 0
-21 -95 0
-21 -96 0
-21 -97 0
-39 -60 0
-39 -74 0
-39 -80 0
-39 -92 0
-39 -95 0
-39 -96 0
-39 -97 0
-60 -74 0
-60 -80 0
-60 -92 0
-60 -95 0
-60 -96 0
-60 -97 0
-74 -80 0
-74 -92 0
-74 -95 0
-74 -96 0
-74 -97 0
-80 -92 0
-80 -95 0
-80 -96 0
-80 -97 0
-92 -95 0
-92 -96 0
-92 -97 0
-95 -96 0
-95 -97 0
-96 -97 0
6 21 39 60 74 80 92 95 96 97 0
-31 -40 0
-31 -58 0
-31 -71 0
-31 -81 0
-31 -88 0
-31 -93 0
-31 -98 0
-31 -99 0
-31 -100 0
-40 -58 0
-40 -71 0
-40 -81 0
-40 -88 0
-40 -93 0
-40 -98 0
-40 -99 0
-40 -100 0
-58 -71 0
-58 -81 0
-58 -88 0
-58 -93 0
-58 -98 0
-58 -99 0
-58 -100 0
-71 -81 0
-71 -88 0
-71 -93 0
-71 -98 0
-71 -99 0
-71 -100 0
-81 -88 0
-81 -93 0
-81 -98 0
-81 -99 0
-81 -100 0
-88 -93 0
-88 -98 0
-88 -99 0
-88 -100 0
-93 -98 0
-93 -99 0
-93 -100 0
-98 -99 0
-98 -100 0
-99 -100 0
31 40 58 71 81 88 93 98 99 100 0
-7 -32 0
-7 -59 0
-7 -89 0
-7 -95 0
-7 -101 0
-7 -102 0
-7 -103 0
-32 -59 0
-32 -89 0
-32 -95 0
-32 -101 0
-32 -102 0
-32 -103 0
-59 -89 0
-59 -95 0
-59 -101 0
-59 -102 0
-59 -103 0
-89 -95 0
-89 -101 0
-89 -102 0
-89 -103 0
-95 -101 0
-95 -102 0
-95 -103 0
-101 -102 0
-101 -103 0
-102 -103 0
7 32 59 89 95 101 102 103 0
-22 -33 0
-22 -61 0
-22 -75 0
-22 -98 0
-22 -101 0
-22 -104 0
-22 -105 0
-22 -106 0
-22 -107 0
-22 -108 0
-33 -61 0
-33 -75 0
-33 -98 0
-33 -101 0
-33 -104 0
-33 -105 0
-33 -106 0
-33 -107 0
-33 -108 0
-61 -75 0
-61 -98 0
-61 -101 0
-61 -104 0
-61 -105 0
-61 -106 0
-61 -107 0
-61 -108 0
-75 -98 0
-75 -101 0
-75 -104 0
-75 -105 0
-75 -106 0
-75 -107 0
-75 -108 0
-98 -101 0
-98 -104 0
-98 -105 0
-98 -106 0
-98 -107 0
-98 -108 0
-101 -104 0
-101 -105 0
-101 -106 0
-101 -107 0
-101 -108 0
-104 -105 0
-104 -106 0
-104 -107 0
-104 -108 0
-105 -106 0
-105 -107 0
-105 -108 0
-106 -107 0
-106 -108 0
-107 -108 0
22 33 61 75 98 101 104 105 106 107 108 0
-34 -46 0
-34 -82 0
-34 -90 0
-34 -102 0
-34 -104 0
-34 -109 0
-34 -110 0
-46 -82 0
-46 -90 0
-46 -102 0
-46 -104 0
-46 -109 0
-46 -110 0
-82 -90 0
-82 -102 0
-82 -104 0
-82 -109 0
-82 -110 0
-90 -102 0
-90 -104 0
-90 -109 0
-90 -110 0
-102 -104 0
-102 -109 0
-102 -110 0
-104 -109 0
-104 -110 0
-109 -110 0
34 46 82 90 102 104 109 110 0
-12 -23 0
-12 -41 0
-12 -47 0
-12 -66 0
-12 -72 0
-12 -76 0
-12 -83 0
-12 -105 0
-12 -109 0
-12 -111 0
-23 -41 0
-23 -47 0
-23 -66 0
-23 -72 0
-23 -76 0
-23 -83 0
-23 -105 0
-23 -109 0
-23 -111 0
-41 -47 0
-41 -66 0
-41 -72 0
-41 -76 0
-41 -83 0
-41 -105 0
-41 -109 0
-41 -111 0
-47 -66 0
-47 -72 0
-47 -76 0
-47 -83 0
-47 -105 0
-47 -109 0
-47 -111 0
-66 -72 0
-66 -76 0
-66 -83 0
-66 -105 0
-66 -109 0
-66 -111 0
-72 -76 0
-72 -83 0
-72 -105 0
-72 -109 0
-72 -111 0
-76 -83 0
-76 -105 0
-76 -109 0
-76 -111 0
-83 -105 0
-83 -109 0
-83 -111 0
-105 -109 0
-105 -111 0
-109 -111 0
12 23 41 47 66 72 76 83 105 109 111 0
-84 -99 0
-84 -112 0
-84 -113 0
-99 -112 0
-99 -113 0
-112 -113 0
84 99 112 113 0
-35 -42 0
-35 -69 0
-35 -85 0
-35 -110 0
-35 -114 0
-42 -69 0
-42 -85 0
-42 -110 0
-42 -114 0
-69 -85 0
-69 -110 0
-69 -114 0
-85 -110 0
-85 -114 0
-110 -114 0
35 42 69 85 110 114 0
-13 -36 0
-13 -55 0
-13 -77 0
-13 -106 0
-13 -114 0
-36 -55 0
-36 -77 0
-36 -106 0
-36 -114 0
-55 -77 0
-55 -106 0
-55 -114 0
-77 -106 0
-77 -114 0
-106 -114 0
13 36 55 77 106 114 0
-24 -56 0
-24 -67 0
-24 -73 0
-24 -96 0
-24 -107 0
-24 -111 0
-24 -115 0
-24 -116 0
-56 -67 0
-56 -73 0
-56 -96 0
-56 -107 0
-56 -111 0
-56 -115 0
-56 -116 0
-67 -73 0
-67 -96 0
-67 -107 0
-67 -111 0
-67 -115 0
-67 -116 0
-73 -96 0
-73 -107 0
-73 -111 0
-73 -115 0
-73 -116 0
-96 -107 0
-96 -111 0
-96 -115 0
-96 -116 0
-107 -111 0
-107 -115 0
-107 -116 0
-111 -115 0
-111 -116 0
-115 -116 0
24 56 67 73 96 107 111 115 116 0
-14 -78 0
-14 -86 0
-14 -100 0
-14 -112 0
-14 -115 0
-14 -117 0
-14 -118 0
-78 -86 0
-78 -100 0
-78 -112 0
-78 -115 0
-78 -117 0
-78 -118 0
-86 -100 0
-86 -112 0
-86 -115 0
-86 -117 0
-86 -118 0
-100 -112 0
-100 -115 0
-100 -117 0
-100 -118 0
-112 -115 0
-112 -117 0
-112 -118 0
-115 -117 0
-115 -118 0
-117 -118 0
14 78 86 100 112 115 117 118 0
-8 -43 0
-8 -57 0
-8 -91 0
-8 -108 0
-8 -117 0
-8 -119 0
-43 -57 0
-43 -91 0
-43 -108 0
-43 -117 0
-43 -119 0
-57 -91 0
-57 -108 0
-57 -117 0
-57 -119 0
-91 -108 0
-91 -117 0
-91 -119 0
-108 -117 0
-108 -119 0
-117 -119 0
8 43 57 91 108 117 119 0
-62 -97 0
-62 -113 0
-62 -119 0
-62 -120 0
-97 -113 0
-97 -119 0
-97 -120 0
-113 -119 0
-113 -120 0
-119 -120 0
62 97 113 119 120 0
-48 -94 0
-48 -103 0
-48 -116 0
-48 -118 0
-48 -120 0
-94 -103 0
-94 -116 0
-94 -118 0
-94 -120 0
-103 -116 0
-103 -118 0
-103 -120 0
-116 -118 0
-116 -120 0
-118 -120 0
48 94 103 116 118 120 0